min: c;

c = 3.84819177039758 * u3_t10_h0 + 3.33390219841718 * u3_t10_h1 + 3.58047097125979 * u3_t4_h2 + 3.58047097125979 * u3_t10_h2 + 3.28684477958535 * u3_t4_h3 + 3.28684477958535 * u3_t10_h3 + 2.6772562890454 * u3_t4_h4 + 2.6772562890454 * u3_t10_h4 + 3.98064705718393 * u3_t4_h5 + 3.98064705718393 * u3_t10_h5 + 3.55781085943513 * u3_t4_h6 + 3.55781085943513 * u3_t10_h6 + 4.00904642084635 * u3_t4_h7 + 4.00904642084635 * u3_t9_h7 + 4.00904642084635 * u3_t10_h7 + 5.01477268790558 * u3_t4_h8 + 5.01477268790558 * u3_t9_h8 + 5.36499598339738 * u3_t4_h9 + 5.36499598339738 * u3_t9_h9 + 5.87363024427476 * u3_t4_h10 + 5.87363024427476 * u3_t6_h10 + 5.87363024427476 * u3_t9_h10 + 4.08224456310929 * u3_t3_h11 + 4.08224456310929 * u3_t4_h11 + 4.08224456310929 * u3_t6_h11 + 4.08224456310929 * u3_t9_h11 + 5.71706380565975 * u3_t3_h12 + 5.71706380565975 * u3_t4_h12 + 5.71706380565975 * u3_t6_h12 + 5.71706380565975 * u3_t9_h12 + 4.73389422099893 * u3_t3_h13 + 4.73389422099893 * u3_t4_h13 + 4.73389422099893 * u3_t5_h13 + 4.73389422099893 * u3_t6_h13 + 4.73389422099893 * u3_t9_h13 + 5.27998651655862 * u3_t3_h14 + 5.27998651655862 * u3_t4_h14 + 5.27998651655862 * u3_t5_h14 + 5.27998651655862 * u3_t6_h14 + 5.27998651655862 * u3_t9_h14 + 6.22798789565585 * u3_t2_h15 + 6.22798789565585 * u3_t3_h15 + 6.22798789565585 * u3_t4_h15 + 6.22798789565585 * u3_t5_h15 + 6.22798789565585 * u3_t6_h15 + 6.22798789565585 * u3_t9_h15 + 5.76356030384644 * u3_t2_h16 + 5.76356030384644 * u3_t4_h16 + 5.76356030384644 * u3_t5_h16 + 5.76356030384644 * u3_t6_h16 + 5.76356030384644 * u3_t9_h16 + 6.78671338852273 * u3_t2_h17 + 6.78671338852273 * u3_t4_h17 + 6.78671338852273 * u3_t6_h17 + 6.78671338852273 * u3_t9_h17 + 6.45865333731795 * u3_t2_h18 + 6.45865333731795 * u3_t6_h18 + 6.45865333731795 * u3_t9_h18 + 5.09095246759086 * u3_t2_h19 + 5.09095246759086 * u3_t9_h19 + 5.42523258743825 * u3_t1_h20 + 5.42523258743825 * u3_t2_h20 + 5.42523258743825 * u3_t8_h20 + 5.42523258743825 * u3_t9_h20 + 5.70714813195008 * u3_t1_h21 + 5.70714813195008 * u3_t2_h21 + 5.70714813195008 * u3_t7_h21 + 5.70714813195008 * u3_t8_h21 + 5.70714813195008 * u3_t9_h21 + 5.79052897724716 * u3_t1_h22 + 5.79052897724716 * u3_t7_h22 + 5.79052897724716 * u3_t8_h22 + 5.27022164154772 * u3_t1_h23 + 5.27022164154772 * u3_t7_h23 + 5.27022164154772 * u3_t8_h23;
0 <= u3_t1_h20 <= 1;
0 <= u3_t1_h21 <= 1;
0 <= u3_t1_h22 <= 1;
0 <= u3_t1_h23 <= 1;
u3_t1_h20 + u3_t1_h21 + u3_t1_h22 + u3_t1_h23 = 2;
0 <= u3_t2_h15 <= 1;
0 <= u3_t2_h16 <= 1;
0 <= u3_t2_h17 <= 1;
0 <= u3_t2_h18 <= 1;
0 <= u3_t2_h19 <= 1;
0 <= u3_t2_h20 <= 1;
0 <= u3_t2_h21 <= 1;
u3_t2_h15 + u3_t2_h16 + u3_t2_h17 + u3_t2_h18 + u3_t2_h19 + u3_t2_h20 + u3_t2_h21 = 3;
0 <= u3_t3_h11 <= 1;
0 <= u3_t3_h12 <= 1;
0 <= u3_t3_h13 <= 1;
0 <= u3_t3_h14 <= 1;
0 <= u3_t3_h15 <= 1;
u3_t3_h11 + u3_t3_h12 + u3_t3_h13 + u3_t3_h14 + u3_t3_h15 = 2;
0 <= u3_t4_h2 <= 1;
0 <= u3_t4_h3 <= 1;
0 <= u3_t4_h4 <= 1;
0 <= u3_t4_h5 <= 1;
0 <= u3_t4_h6 <= 1;
0 <= u3_t4_h7 <= 1;
0 <= u3_t4_h8 <= 1;
0 <= u3_t4_h9 <= 1;
0 <= u3_t4_h10 <= 1;
0 <= u3_t4_h11 <= 1;
0 <= u3_t4_h12 <= 1;
0 <= u3_t4_h13 <= 1;
0 <= u3_t4_h14 <= 1;
0 <= u3_t4_h15 <= 1;
0 <= u3_t4_h16 <= 1;
0 <= u3_t4_h17 <= 1;
u3_t4_h2 + u3_t4_h3 + u3_t4_h4 + u3_t4_h5 + u3_t4_h6 + u3_t4_h7 + u3_t4_h8 + u3_t4_h9 + u3_t4_h10 + u3_t4_h11 + u3_t4_h12 + u3_t4_h13 + u3_t4_h14 + u3_t4_h15 + u3_t4_h16 + u3_t4_h17 = 3;
0 <= u3_t5_h13 <= 1;
0 <= u3_t5_h14 <= 1;
0 <= u3_t5_h15 <= 1;
0 <= u3_t5_h16 <= 1;
u3_t5_h13 + u3_t5_h14 + u3_t5_h15 + u3_t5_h16 = 2;
0 <= u3_t6_h10 <= 1;
0 <= u3_t6_h11 <= 1;
0 <= u3_t6_h12 <= 1;
0 <= u3_t6_h13 <= 1;
0 <= u3_t6_h14 <= 1;
0 <= u3_t6_h15 <= 1;
0 <= u3_t6_h16 <= 1;
0 <= u3_t6_h17 <= 1;
0 <= u3_t6_h18 <= 1;
u3_t6_h10 + u3_t6_h11 + u3_t6_h12 + u3_t6_h13 + u3_t6_h14 + u3_t6_h15 + u3_t6_h16 + u3_t6_h17 + u3_t6_h18 = 2;
0 <= u3_t7_h21 <= 1;
0 <= u3_t7_h22 <= 1;
0 <= u3_t7_h23 <= 1;
u3_t7_h21 + u3_t7_h22 + u3_t7_h23 = 2;
0 <= u3_t8_h20 <= 1;
0 <= u3_t8_h21 <= 1;
0 <= u3_t8_h22 <= 1;
0 <= u3_t8_h23 <= 1;
u3_t8_h20 + u3_t8_h21 + u3_t8_h22 + u3_t8_h23 = 1;
0 <= u3_t9_h7 <= 1;
0 <= u3_t9_h8 <= 1;
0 <= u3_t9_h9 <= 1;
0 <= u3_t9_h10 <= 1;
0 <= u3_t9_h11 <= 1;
0 <= u3_t9_h12 <= 1;
0 <= u3_t9_h13 <= 1;
0 <= u3_t9_h14 <= 1;
0 <= u3_t9_h15 <= 1;
0 <= u3_t9_h16 <= 1;
0 <= u3_t9_h17 <= 1;
0 <= u3_t9_h18 <= 1;
0 <= u3_t9_h19 <= 1;
0 <= u3_t9_h20 <= 1;
0 <= u3_t9_h21 <= 1;
u3_t9_h7 + u3_t9_h8 + u3_t9_h9 + u3_t9_h10 + u3_t9_h11 + u3_t9_h12 + u3_t9_h13 + u3_t9_h14 + u3_t9_h15 + u3_t9_h16 + u3_t9_h17 + u3_t9_h18 + u3_t9_h19 + u3_t9_h20 + u3_t9_h21 = 2;
0 <= u3_t10_h0 <= 1;
0 <= u3_t10_h1 <= 1;
0 <= u3_t10_h2 <= 1;
0 <= u3_t10_h3 <= 1;
0 <= u3_t10_h4 <= 1;
0 <= u3_t10_h5 <= 1;
0 <= u3_t10_h6 <= 1;
0 <= u3_t10_h7 <= 1;
u3_t10_h0 + u3_t10_h1 + u3_t10_h2 + u3_t10_h3 + u3_t10_h4 + u3_t10_h5 + u3_t10_h6 + u3_t10_h7 = 3;
